   24
          3          1          3
          3          4          6
          1          7          7
          1          8          8
          3          9         11
          2         12         13
          1         14         14
          3         15         17
          2         18         19
          2         20         21
          1         22         22
          1         23         23
          1         24         24
          1         25         25
          1         26         26
          3         27         29
          3         30         32
          5         33         37
          1         38         38
          4         39         42
          2         43         44
          2         45         46
          1         47         47
          1         48         48
